# Solution for model micodag
# Objective value = 1.6929025070832285e+01
s_0_1 0
s_1_0 0
s_0_2 0
s_2_0 4.2449789683494021e-01
s_1_4 0
s_4_1 2.6289072411008529e-01
s_2_3 0
s_3_2 2.1360674304524530e-01
s_2_4 0
s_4_2 0
s_2_5 0
s_5_2 3.4453581867417782e-01
s_4_5 0
s_5_4 6.0803370952921370e+00
s_4_12 0
s_12_4 6.0803370952921370e+00
s_4_13 0
s_13_4 6.0803370952921370e+00
s_5_6 0
s_6_5 4.9011161354301613e-01
s_6_7 0
s_7_6 5.8327025884421957e-01
s_6_8 0
s_8_6 1.2337152748287670e+00
s_6_10 0
s_10_6 1.7524778549815245e-01
s_6_11 0
s_11_6 5.5517742306086060e-01
s_6_14 0
s_14_6 8.3061162573851544e-01
s_7_8 0
s_8_7 1.1286677859867797e+00
s_7_9 0
s_9_7 0
s_8_9 0
s_9_8 0.0885988786186136
s_9_10 9.5923670701199093e-01
s_10_9 0
s_10_11 0
s_11_10 2.8701802387291853e-01
s_14_15 0
s_15_14 3.5328405720709810e-01
s_0_0 6.8904649543875340e-01
s_1_1 2.0096160057807824e+00
s_2_2 1.0774701513555751e+00
s_3_3 6.4360552251834591e-01
s_4_4 6.0803370952921370e+00
s_5_5 6.4492564845903377e-01
s_6_6 7.3727165287774454e-01
s_7_7 9.0403856267213989e-01
s_8_8 1.8803319437822710e+00
s_9_9 1.5922990770363041e+00
s_10_10 1.0139591219510047e+00
s_11_11 9.8311893497147285e-01
s_12_12 6.4350687418310581e-01
s_13_13 1.1200108341354857e+00
s_14_14 2.0767030717275121e+00
s_15_15 1.0112041573800674e+00
Gamma_0_0 8.3008824557317629e-01
Gamma_0_1 0
Gamma_0_2 0
Gamma_0_3 0
Gamma_0_4 0
Gamma_0_5 0
Gamma_0_6 0
Gamma_0_7 0
Gamma_0_8 0
Gamma_0_9 0
Gamma_0_10 0
Gamma_0_11 0
Gamma_0_12 0
Gamma_0_13 0
Gamma_0_14 0
Gamma_0_15 0
Gamma_1_0 0
Gamma_1_1 1.4176092570877152e+00
Gamma_1_2 0
Gamma_1_3 0
Gamma_1_4 0
Gamma_1_5 0
Gamma_1_6 0
Gamma_1_7 0
Gamma_1_8 0
Gamma_1_9 0
Gamma_1_10 0
Gamma_1_11 0
Gamma_1_12 0
Gamma_1_13 0
Gamma_1_14 0
Gamma_1_15 0
Gamma_2_0 6.5153503116481837e-01
Gamma_2_1 0
Gamma_2_2 1.0380125969156522e+00
Gamma_2_3 0
Gamma_2_4 0
Gamma_2_5 0
Gamma_2_6 0
Gamma_2_7 0
Gamma_2_8 0
Gamma_2_9 0
Gamma_2_10 0
Gamma_2_11 0
Gamma_2_12 0
Gamma_2_13 0
Gamma_2_14 0
Gamma_2_15 0
Gamma_3_0 0
Gamma_3_1 0
Gamma_3_2 0.462176095276731
Gamma_3_3 8.0225028670505683e-01
Gamma_3_4 0
Gamma_3_5 0
Gamma_3_6 0
Gamma_3_7 0
Gamma_3_8 0
Gamma_3_9 0
Gamma_3_10 0
Gamma_3_11 0
Gamma_3_12 0
Gamma_3_13 0
Gamma_3_14 0
Gamma_3_15 0
Gamma_4_0 0
Gamma_4_1 5.1272870419948768e-01
Gamma_4_2 0
Gamma_4_3 0
Gamma_4_4 8.3635008465147975e-01
Gamma_4_5 0
Gamma_4_6 0
Gamma_4_7 0
Gamma_4_8 0
Gamma_4_9 0
Gamma_4_10 0
Gamma_4_11 0
Gamma_4_12 0
Gamma_4_13 0
Gamma_4_14 0
Gamma_4_15 0
Gamma_5_0 0
Gamma_5_1 0
Gamma_5_2 5.8697173583928075e-01
Gamma_5_3 0
Gamma_5_4 6.4361532047050474e-01
Gamma_5_5 8.0307262962887382e-01
Gamma_5_6 0
Gamma_5_7 0
Gamma_5_8 0
Gamma_5_9 0
Gamma_5_10 0
Gamma_5_11 0
Gamma_5_12 0
Gamma_5_13 0
Gamma_5_14 0
Gamma_5_15 0
Gamma_6_0 0
Gamma_6_1 0
Gamma_6_2 0
Gamma_6_3 0
Gamma_6_4 0
Gamma_6_5 -7.0007971941987945e-01
Gamma_6_6 8.5864524273866782e-01
Gamma_6_7 0
Gamma_6_8 0
Gamma_6_9 0
Gamma_6_10 0
Gamma_6_11 0
Gamma_6_12 0
Gamma_6_13 0
Gamma_6_14 0
Gamma_6_15 0
Gamma_7_0 0
Gamma_7_1 0
Gamma_7_2 0
Gamma_7_3 0
Gamma_7_4 0
Gamma_7_5 0
Gamma_7_6 7.6372132276388660e-01
Gamma_7_7 9.5080942500174026e-01
Gamma_7_8 0
Gamma_7_9 0
Gamma_7_10 0
Gamma_7_11 0
Gamma_7_12 0
Gamma_7_13 0
Gamma_7_14 0
Gamma_7_15 0
Gamma_8_0 0
Gamma_8_1 0
Gamma_8_2 0
Gamma_8_3 0
Gamma_8_4 0
Gamma_8_5 0
Gamma_8_6 -1.1107273629603118e+00
Gamma_8_7 1.0623877757141127e+00
Gamma_8_8 1.3712519621799166e+00
Gamma_8_9 0
Gamma_8_10 0
Gamma_8_11 0
Gamma_8_12 0
Gamma_8_13 0
Gamma_8_14 0
Gamma_8_15 0
Gamma_9_0 0
Gamma_9_1 0
Gamma_9_2 0
Gamma_9_3 0
Gamma_9_4 0
Gamma_9_5 0
Gamma_9_6 0
Gamma_9_7 0
Gamma_9_8 2.9765563763956182e-01
Gamma_9_9 1.2618633353245134e+00
Gamma_9_10 -9.7940630333482737e-01
Gamma_9_11 0
Gamma_9_12 0
Gamma_9_13 0
Gamma_9_14 0
Gamma_9_15 0
Gamma_10_0 0
Gamma_10_1 0
Gamma_10_2 0
Gamma_10_3 0
Gamma_10_4 0
Gamma_10_5 0
Gamma_10_6 4.1862606882294523e-01
Gamma_10_7 0
Gamma_10_8 0
Gamma_10_9 0
Gamma_10_10 1.0069553723730784e+00
Gamma_10_11 0
Gamma_10_12 0
Gamma_10_13 0
Gamma_10_14 0
Gamma_10_15 0
Gamma_11_0 0
Gamma_11_1 0
Gamma_11_2 0
Gamma_11_3 0
Gamma_11_4 0
Gamma_11_5 0
Gamma_11_6 -7.4510229033392494e-01
Gamma_11_7 0
Gamma_11_8 0
Gamma_11_9 0
Gamma_11_10 -5.3574063115739090e-01
Gamma_11_11 9.9152354231832218e-01
Gamma_11_12 0
Gamma_11_13 0
Gamma_11_14 0
Gamma_11_15 0
Gamma_12_0 0
Gamma_12_1 0
Gamma_12_2 0
Gamma_12_3 0
Gamma_12_4 -5.0086437395594774e-01
Gamma_12_5 0
Gamma_12_6 0
Gamma_12_7 0
Gamma_12_8 0
Gamma_12_9 0
Gamma_12_10 0
Gamma_12_11 0
Gamma_12_12 0.80218880208035
Gamma_12_13 0
Gamma_12_14 0
Gamma_12_15 0
Gamma_13_0 0
Gamma_13_1 0
Gamma_13_2 0
Gamma_13_3 0
Gamma_13_4 -8.5109919661398536e-01
Gamma_13_5 0
Gamma_13_6 0
Gamma_13_7 0
Gamma_13_8 0
Gamma_13_9 0
Gamma_13_10 0
Gamma_13_11 0
Gamma_13_12 0
Gamma_13_13 1.0583056430613447e+00
Gamma_13_14 0
Gamma_13_15 0
Gamma_14_0 0
Gamma_14_1 0
Gamma_14_2 0
Gamma_14_3 0
Gamma_14_4 0
Gamma_14_5 0
Gamma_14_6 -9.1137896933082485e-01
Gamma_14_7 0
Gamma_14_8 0
Gamma_14_9 0
Gamma_14_10 0
Gamma_14_11 0
Gamma_14_12 0
Gamma_14_13 0
Gamma_14_14 1.4410770526684247e+00
Gamma_14_15 0
Gamma_15_0 0
Gamma_15_1 0
Gamma_15_2 0
Gamma_15_3 0
Gamma_15_4 0
Gamma_15_5 0
Gamma_15_6 0
Gamma_15_7 0
Gamma_15_8 0
Gamma_15_9 0
Gamma_15_10 0
Gamma_15_11 0
Gamma_15_12 0
Gamma_15_13 0
Gamma_15_14 -5.9437703287315813e-01
Gamma_15_15 1.0055864743422458e+00
psi_0 6
psi_1 6
psi_2 5
psi_3 0
psi_4 5
psi_5 4
psi_6 3
psi_7 2
psi_8 1
psi_9 0
psi_10 1
psi_11 0
psi_12 0
psi_13 0
psi_14 1
psi_15 0
g_0_0 0
g_0_1 0
g_0_2 0
g_0_3 0
g_0_4 0
g_0_5 0
g_0_6 0
g_0_7 0
g_0_8 0
g_0_9 0
g_0_10 0
g_0_11 0
g_0_12 0
g_0_13 0
g_0_14 0
g_0_15 0
g_1_0 0
g_1_1 0
g_1_2 0
g_1_3 0
g_1_4 0
g_1_5 0
g_1_6 0
g_1_7 0
g_1_8 0
g_1_9 0
g_1_10 0
g_1_11 0
g_1_12 0
g_1_13 0
g_1_14 0
g_1_15 0
g_2_0 1
g_2_1 0
g_2_2 0
g_2_3 0
g_2_4 0
g_2_5 0
g_2_6 0
g_2_7 0
g_2_8 0
g_2_9 0
g_2_10 0
g_2_11 0
g_2_12 0
g_2_13 0
g_2_14 0
g_2_15 0
g_3_0 0
g_3_1 0
g_3_2 1
g_3_3 0
g_3_4 0
g_3_5 0
g_3_6 0
g_3_7 0
g_3_8 0
g_3_9 0
g_3_10 0
g_3_11 0
g_3_12 0
g_3_13 0
g_3_14 0
g_3_15 0
g_4_0 0
g_4_1 1
g_4_2 0
g_4_3 0
g_4_4 0
g_4_5 0
g_4_6 0
g_4_7 0
g_4_8 0
g_4_9 0
g_4_10 0
g_4_11 0
g_4_12 0
g_4_13 0
g_4_14 0
g_4_15 0
g_5_0 0
g_5_1 0
g_5_2 1
g_5_3 0
g_5_4 1
g_5_5 0
g_5_6 0
g_5_7 0
g_5_8 0
g_5_9 0
g_5_10 0
g_5_11 0
g_5_12 0
g_5_13 0
g_5_14 0
g_5_15 0
g_6_0 0
g_6_1 0
g_6_2 0
g_6_3 0
g_6_4 0
g_6_5 1
g_6_6 0
g_6_7 0
g_6_8 0
g_6_9 0
g_6_10 0
g_6_11 0
g_6_12 0
g_6_13 0
g_6_14 0
g_6_15 0
g_7_0 0
g_7_1 0
g_7_2 0
g_7_3 0
g_7_4 0
g_7_5 0
g_7_6 1
g_7_7 0
g_7_8 0
g_7_9 0
g_7_10 0
g_7_11 0
g_7_12 0
g_7_13 0
g_7_14 0
g_7_15 0
g_8_0 0
g_8_1 0
g_8_2 0
g_8_3 0
g_8_4 0
g_8_5 0
g_8_6 1
g_8_7 1
g_8_8 0
g_8_9 0
g_8_10 0
g_8_11 0
g_8_12 0
g_8_13 0
g_8_14 0
g_8_15 0
g_9_0 0
g_9_1 0
g_9_2 0
g_9_3 0
g_9_4 0
g_9_5 0
g_9_6 0
g_9_7 0
g_9_8 1
g_9_9 0
g_9_10 1
g_9_11 0
g_9_12 0
g_9_13 0
g_9_14 0
g_9_15 0
g_10_0 0
g_10_1 0
g_10_2 0
g_10_3 0
g_10_4 0
g_10_5 0
g_10_6 1
g_10_7 0
g_10_8 0
g_10_9 0
g_10_10 0
g_10_11 0
g_10_12 0
g_10_13 0
g_10_14 0
g_10_15 0
g_11_0 0
g_11_1 0
g_11_2 0
g_11_3 0
g_11_4 0
g_11_5 0
g_11_6 1
g_11_7 0
g_11_8 0
g_11_9 0
g_11_10 1
g_11_11 0
g_11_12 0
g_11_13 0
g_11_14 0
g_11_15 0
g_12_0 0
g_12_1 0
g_12_2 0
g_12_3 0
g_12_4 1
g_12_5 0
g_12_6 0
g_12_7 0
g_12_8 0
g_12_9 0
g_12_10 0
g_12_11 0
g_12_12 0
g_12_13 0
g_12_14 0
g_12_15 0
g_13_0 0
g_13_1 0
g_13_2 0
g_13_3 0
g_13_4 1
g_13_5 0
g_13_6 0
g_13_7 0
g_13_8 0
g_13_9 0
g_13_10 0
g_13_11 0
g_13_12 0
g_13_13 0
g_13_14 0
g_13_15 0
g_14_0 0
g_14_1 0
g_14_2 0
g_14_3 0
g_14_4 0
g_14_5 0
g_14_6 1
g_14_7 0
g_14_8 0
g_14_9 0
g_14_10 0
g_14_11 0
g_14_12 0
g_14_13 0
g_14_14 0
g_14_15 0
g_15_0 0
g_15_1 0
g_15_2 0
g_15_3 0
g_15_4 0
g_15_5 0
g_15_6 0
g_15_7 0
g_15_8 0
g_15_9 0
g_15_10 0
g_15_11 0
g_15_12 0
g_15_13 0
g_15_14 1
g_15_15 0
T_0 3.7244652775075338e-01
T_1 -6.9794366192004986e-01
T_2 -7.4615840853894611e-02
T_3 4.4066928323206866e-01
T_4 3.5741598401749286e-01
T_5 4.3862024253780874e-01
T_6 3.0479886192794936e-01
T_7 1.0088326167661421e-01
T_8 -6.3144832709757281e-01
T_9 -4.6517893223824558e-01
T_10 -1.3862590698593635e-02
T_11 1.7025174321261716e-02
T_12 4.4082256951178067e-01
T_13 -1.1333835859547037e-01
T_14 -7.3078157450449055e-01
T_15 -1.1141855735147033e-02
